NAME : MM36_depots
COMMENT : Instance 36 in MD algorithm. Coordinates of depots and vhcl speeds given.
TYPE : TSP
DIMENSION : 12
EDGE_WEIGHT_TYPE : ATT
NODE_COORD_SECTION
401 79.7742 29.3295 1
402 79.7742 29.3295 1
403 79.7742 29.3295 1
404 59.0776 5.1588 1
405 59.0776 5.1588 1
406 59.0776 5.1588 1
407 91.2197 50.4128 1
408 91.2197 50.4128 1
409 91.2197 50.4128 1
410 10.1129 76.8376 1
411 10.1129 76.8376 1
412 10.1129 76.8376 1
EOF
